\ Model p-center
\ LP format - for model browsing. Use MPS format to capture full model detail.
Minimize
  L
Subject To
 epigraph[0]: 2238.920879182159 x[0,1] + 1652.078616410156 x[0,2]
   + 443.1846126075811 x[0,3] + 116.4005915886634 x[0,4] - L <= 0
 epigraph[1]: 2565.104541249843 x[1,0] + 1164.459682363 x[1,2]
   + 2093.7840788596 x[1,3] + 2502.354298053161 x[1,4] - L <= 0
 epigraph[2]: 2051.092017981787 x[2,0] + 1261.864050277814 x[2,1]
   + 1504.078384602429 x[2,3] + 1935.557267207922 x[2,4] - L <= 0
 epigraph[3]: 504.4722011141034 x[3,0] + 2080.262480236223 x[3,1]
   + 1379.013766335561 x[3,2] + 413.6898662934867 x[3,4] - L <= 0
 epigraph[4]: 145.709809643669 x[4,0] + 2734.110607357404 x[4,1]
   + 1951.574765938095 x[4,2] + 454.9418817558142 x[4,3] - L <= 0
 p: y[0] + y[1] + y[2] + y[3] + y[4] = 2
 x<y[0,0]: x[0,0] - y[0] <= 0
 x<y[0,1]: x[0,1] - y[1] <= 0
 x<y[0,2]: x[0,2] - y[2] <= 0
 x<y[0,3]: x[0,3] - y[3] <= 0
 x<y[0,4]: x[0,4] - y[4] <= 0
 x<y[1,0]: x[1,0] - y[0] <= 0
 x<y[1,1]: x[1,1] - y[1] <= 0
 x<y[1,2]: x[1,2] - y[2] <= 0
 x<y[1,3]: x[1,3] - y[3] <= 0
 x<y[1,4]: x[1,4] - y[4] <= 0
 x<y[2,0]: x[2,0] - y[0] <= 0
 x<y[2,1]: x[2,1] - y[1] <= 0
 x<y[2,2]: x[2,2] - y[2] <= 0
 x<y[2,3]: x[2,3] - y[3] <= 0
 x<y[2,4]: x[2,4] - y[4] <= 0
 x<y[3,0]: x[3,0] - y[0] <= 0
 x<y[3,1]: x[3,1] - y[1] <= 0
 x<y[3,2]: x[3,2] - y[2] <= 0
 x<y[3,3]: x[3,3] - y[3] <= 0
 x<y[3,4]: x[3,4] - y[4] <= 0
 x<y[4,0]: x[4,0] - y[0] <= 0
 x<y[4,1]: x[4,1] - y[1] <= 0
 x<y[4,2]: x[4,2] - y[2] <= 0
 x<y[4,3]: x[4,3] - y[3] <= 0
 x<y[4,4]: x[4,4] - y[4] <= 0
 sumx[0]: x[0,0] + x[0,1] + x[0,2] + x[0,3] + x[0,4] = 1
 sumx[1]: x[1,0] + x[1,1] + x[1,2] + x[1,3] + x[1,4] = 1
 sumx[2]: x[2,0] + x[2,1] + x[2,2] + x[2,3] + x[2,4] = 1
 sumx[3]: x[3,0] + x[3,1] + x[3,2] + x[3,3] + x[3,4] = 1
 sumx[4]: x[4,0] + x[4,1] + x[4,2] + x[4,3] + x[4,4] = 1
Bounds
Binaries
 x[0,0] x[0,1] x[0,2] x[0,3] x[0,4] x[1,0] x[1,1] x[1,2] x[1,3] x[1,4]
 x[2,0] x[2,1] x[2,2] x[2,3] x[2,4] x[3,0] x[3,1] x[3,2] x[3,3] x[3,4]
 x[4,0] x[4,1] x[4,2] x[4,3] x[4,4] y[0] y[1] y[2] y[3] y[4]
End
